p cnf 14 64
1 3 7 0
2 -5 -9 0
-8 -13 14 0
2 8 9 0
1 5 -8 0
1 -10 -11 0
-5 -7 10 0
4 -10 -12 0
7 -8 -9 0
-8 -11 -12 0
1 -3 -4 0
-11 12 -13 0
-3 5 -14 0
-5 9 14 0
2 -4 5 0
2 7 9 0
-3 -6 -7 0
1 -2 4 0
1 3 12 0
-9 -11 14 0
2 -12 -14 0
-5 -6 7 0
5 -12 -14 0
-2 9 12 0
7 -11 -13 0
-1 -6 -9 0
1 -3 8 0
1 -4 10 0
6 11 -14 0
6 -9 -10 0
1 -6 -9 0
3 6 10 0
1 6 -12 0
7 -9 10 0
-3 6 8 0
3 -9 -12 0
-6 7 10 0
3 5 -10 0
-6 -9 -11 0
2 -3 8 0
2 -6 13 0
-4 5 11 0
4 7 -13 0
-1 11 -13 0
-4 -5 10 0
4 -7 9 0
-10 -11 12 0
-2 6 -12 0
1 -5 11 0
2 10 13 0
1 7 10 0
-2 -4 12 0
-1 -5 -13 0
-3 -7 11 0
7 -9 -12 0
1 2 8 0
1 9 12 0
-2 -3 -14 0
-7 -9 -13 0
2 3 4 0
4 7 -8 0
-1 3 -4 0
1 -7 10 0
-8 -9 -12 0
